
Gurobi 12.0.1 (win64, C++) logging started Thu Mar 20 17:47:31 2025

Set parameter Username
Set parameter LicenseID to value 2618661
Academic license - for non-commercial use only - expires 2026-02-05
Set parameter Threads to value 8
Set parameter LazyConstraints to value 1
Set parameter PreCrush to value 1
Set parameter Seed to value 0
Set parameter Cuts to value -1
Set parameter TimeLimit to value 28800
Set parameter NumericFocus to value 0
Set parameter SolutionLimit to value 10000
Gurobi Optimizer version 12.0.1 build v12.0.1rc0 (win64 - Windows Server 2022.0 (20348.2))

CPU model: AMD EPYC 7513 32-Core Processor, instruction set [SSE2|AVX|AVX2]
Thread count: 18 physical cores, 18 logical processors, using up to 8 threads

Non-default parameters:
SolutionLimit  10000
TimeLimit  28800
PreCrush  1
Threads  8
LazyConstraints  1

Optimize a model with 235 rows, 441 columns and 1266 nonzeros
Model fingerprint: 0xf52f7c59
Variable types: 0 continuous, 441 integer (441 binary)
Coefficient statistics:
  Matrix range     [1e+00, 1e+00]
  Objective range  [6e+00, 6e+01]
  Bounds range     [1e+00, 1e+00]
  RHS range        [1e+00, 6e+00]
Presolve removed 10 rows and 35 columns
Presolve time: 0.00s
Presolved: 225 rows, 406 columns, 1164 nonzeros
Variable types: 0 continuous, 406 integer (406 binary)

Root relaxation: objective 3.490889e+02, 78 iterations, 0.00 seconds (0.00 work units)

    Nodes    |    Current Node    |     Objective Bounds      |     Work
 Expl Unexpl |  Obj  Depth IntInf | Incumbent    BestBd   Gap | It/Node Time

     0     0  349.08891    0    -          -  349.08891      -     -    0s
     0     0  361.48864    0    -          -  361.48864      -     -    0s
     0     0  363.62120    0    -          -  363.62120      -     -    0s
     0     0  371.76545    0   22          -  371.76545      -     -    0s
     0     0  371.90225    0    -          -  371.90225      -     -    0s
     0     0  373.68867    0   38          -  373.68867      -     -    0s
     0     0  374.86943    0   40          -  374.86943      -     -    0s
     0     0  376.06321    0   47          -  376.06321      -     -    0s
     0     0  376.06321    0   37          -  376.06321      -     -    0s
     0     2  378.01574    0   16          -  378.01574      -     -    0s
  1726  1476  450.68439   56   37          -  390.33592      -  10.1    5s
  2825  2139  416.21259   22   24          -  407.06930      -  11.3   10s
* 4506  1491              51     430.8846754  409.83229  4.89%  11.0   14s
  4938  1391  427.11196   21   42  430.88468  411.56651  4.48%  11.2   15s

Cutting planes:
  Gomory: 3
  Clique: 1
  Zero half: 6
  Lazy constraints: 510

Explored 15266 nodes (186814 simplex iterations) in 17.59 seconds (3.65 work units)
Thread count was 8 (of 18 available processors)

Solution count 1: 430.885 

Optimal solution found (tolerance 1.00e-04)
Best objective 4.308846754242e+02, best bound 4.308846754242e+02, gap 0.0000%

User-callback calls 31410, time in user-callback 14.29 sec
### START EXACT APPROACH ###
ProblemVariant: 1
### START PREPROCESSING ###
## Start infeasible path procedure ## 
Deleted arcs: 14
Infeasible tail paths: 3
Infeasible 2-node combinations: 7
## Start extended infeasible path procedure ##
Deleted arcs: 14
Infeasible tail paths: 3
Infeasible 2-node combinations: 7
## Start start solution procedure ##
### END PREPROCESSING ###
Route 0 0-2-1-0 : weight util 0.827586 | volume util 0.277467 | infeasible with packing heuristic | feasible with CP model
Route 1 0-6-19-11-20-5-0 : weight util 1.000000 | volume util 0.541422 | infeasible with packing heuristic | feasible with CP model
Route 2 0-7-9-3-4-0 : weight util 0.965517 | volume util 0.385956 | infeasible with packing heuristic | feasible with CP model
Route 3 0-8-17-0 : weight util 0.965517 | volume util 0.092444 | infeasible with packing heuristic | feasible with CP model
Route 4 0-12-10-18-16-0 : weight util 0.982759 | volume util 0.250267 | infeasible with packing heuristic | feasible with CP model
Route 5 0-13-14-15-0 : weight util 0.931034 | volume util 0.663778 | infeasible with packing heuristic | feasible with CP model
